problems/VanDerWaerdenNumbers/VanDerWaerden-models/noch/O2/lingeling/model_1-k3l4n35-solution000001.solution
language Essence 1.3

letting p be
        partition({1, 11, 13, 23, 24, 29, 30}, {2, 3, 4, 6, 7, 10, 15, 16, 17, 20, 26, 28, 32},
                  {5, 8, 9, 12, 14, 18, 19, 21, 22, 25, 27, 31, 33, 34, 35})
